nNurses = 132;
nHours = 37;
minHours = 4;
maxHours = 10;
maxConsec = 10;
maxPresence = 20;
demand = [24, 19, 14, 17, 19, 23, 27, 28, 28, 29, 27, 26, 26, 25, 26, 29, 33, 29, 25, 22, 18, 16, 18, 15, 19, 14, 14, 18, 16, 21, 24, 29, 26, 28, 32, 36, 35];
